(set-info :origin "driver benchmark extracted from Microsoft SDV")
(set-logic HORN)
(declare-fun Proc8 (Int Int Bool Int Int Int) Bool)
(declare-fun Proc18 (Int Int Bool Int Int Int) Bool)
(declare-fun Proc1 (Int Int Bool Int Int Int Int) Bool)
(declare-fun Proc34 (Int Int Bool Int) Bool)
(declare-fun Proc12 (Int Int Bool Int Int Int Int) Bool)
(declare-fun Proc26 (Int Int Bool Int) Bool)
(declare-fun Proc24 (Int Int Bool) Bool)
(declare-fun Proc10
             (Int Int Bool Int Int Int Int Int Int Int Int Int Int Int Int)
             Bool)
(declare-fun Proc2 (Int Int Bool Int Int) Bool)
(declare-fun Proc25 (Int Int Bool Int) Bool)
(declare-fun Proc40 (Int Int Bool Int) Bool)
(declare-fun Proc36 (Int Int Bool Int) Bool)
(declare-fun Proc41 (Int Int Bool Int Int Int) Bool)
(declare-fun Proc6 (Int Int Bool Int Int Int) Bool)
(declare-fun Proc3 (Int Int Bool Int Int Int) Bool)
(declare-fun Proc16 (Int Int Bool Int) Bool)
(declare-fun Proc17 (Int Int Bool Int Int) Bool)
(declare-fun Proc20 (Int Int Bool Int Int Int Int) Bool)
(declare-fun Proc29 (Int Int Bool Int) Bool)
(declare-fun Proc38 (Int Int Bool Int) Bool)
(declare-fun Proc42 (Int Int Bool Int) Bool)
(declare-fun Proc33 (Int Int Bool Int) Bool)
(declare-fun Proc39 (Int Int Bool Int) Bool)
(declare-fun Proc44 (Int Int Bool Int Int) Bool)
(declare-fun Proc35 (Int Int Bool Int) Bool)
(declare-fun Proc27 (Int Int Bool Int Int) Bool)
(declare-fun Proc19 (Int Int Bool Int Int) Bool)
(declare-fun Proc5 (Int Int Bool Int Int Int Int) Bool)
(declare-fun Proc0 (Int Int Bool) Bool)
(declare-fun Proc43 (Int Int Bool) Bool)
(declare-fun Proc4 (Int Int Bool Int Int) Bool)
(declare-fun Proc31 (Int Int Bool Int) Bool)
(declare-fun Proc47 (Int Int Bool) Bool)
(declare-fun Proc30 (Int Int Bool Int) Bool)
(declare-fun Proc48 (Int Int Bool) Bool)
(declare-fun Proc23 (Int Int Bool) Bool)
(declare-fun Proc9 (Int Int Bool Int Int Int) Bool)
(declare-fun Proc45 (Int Int Bool Int) Bool)
(declare-fun Proc13 (Int Int Bool Int Int Int) Bool)
(declare-fun Proc37 (Int Int Bool Int) Bool)
(declare-fun Proc7 (Int Int Bool Int Int Int Int) Bool)
(declare-fun Proc49 (Int Int Bool Int Int) Bool)
(declare-fun Proc11 (Int Int Bool Int Int Int) Bool)
(declare-fun Proc50 (Int Int Bool) Bool)
(declare-fun Proc21 (Int Int Bool Int Int Int Int) Bool)
(declare-fun Proc14 (Int Int Bool Int) Bool)
(declare-fun Proc15 (Int Int Bool Int Int Int) Bool)
(declare-fun Proc51 (Int Int Bool Int Bool Int Int) Bool)
(declare-fun Proc32 (Int Int Bool Int) Bool)
(declare-fun Proc28 (Int Int Bool Int Int Bool Int) Bool)
(declare-fun Proc22 (Int Int Bool) Bool)
(declare-fun Proc46 (Int Int Bool Int Int Int Int) Bool)
(assert (forall ((A Int) (B Int) (C Int) (D Int) (E Int) (F Int) (G Bool))
  (let ((a!1 (not (or (not G) (not (Proc0 F E G))))))
    (=> a!1 (Proc1 F E G D C B A)))))
(assert (forall ((A Int) (B Int) (C Int) (D Int) (E Int) (F Int) (G Bool))
  (let ((a!1 (not (or (not G) (not (Proc2 F E G 0 D)) (not (= C 0))))))
    (=> a!1 (Proc3 F E G B A C)))))
(assert (forall ((A Int)
         (B Int)
         (C Int)
         (D Int)
         (E Int)
         (F Int)
         (G Bool)
         (H Int)
         (I Int))
  (let ((a!1 (or (not G) (not (Proc4 I H G F E)) (not (and (= D 0) (= C E))))))
    (=> (not a!1) (Proc5 I H G B A D C)))))
(assert (forall ((A Int)
         (B Int)
         (C Int)
         (D Int)
         (E Int)
         (F Int)
         (G Bool)
         (H Int)
         (I Int)
         (J Int)
         (K Int))
  (let ((a!1 (and (not (<= I (+ 4 K))) (not (<= I J)))))
  (let ((a!2 (or (not G)
                 (not (= K J))
                 (not a!1)
                 (not (Proc6 I H G K F E))
                 (not (and (= D 0) (= C E))))))
    (=> (not a!2) (Proc7 J H G B A D C))))))
(assert (forall ((A Int) (B Int) (C Int) (D Int) (E Int) (F Int) (G Bool))
  (let ((a!1 (not (or (not G) (not (Proc8 F E G D C B)) (not (= A 0))))))
    (=> a!1 (Proc9 F E G D C A)))))
(assert (forall ((A Int)
         (B Int)
         (C Int)
         (D Int)
         (E Int)
         (F Int)
         (G Bool)
         (H Int)
         (I Int)
         (J Int))
  (let ((a!1 (not (and (not (= I 0))
                       (= H (+ 52 I))
                       (Proc10 F E G H 99 I 0 D 0 0 0 1 1 1 C)))))
  (let ((a!2 (not (or (not G) (= J 0) (= I 0) a!1 (not (= B 0))))))
    (=> a!2 (Proc11 F E G J A B))))))
(assert (forall ((A Int) (B Int) (C Int) (D Int) (E Int) (F Int) (G Bool) (H Int))
  (let ((a!1 (not (and (not (= H 0)) (= F (+ 8 H)) (Proc12 E D G F H 0 C)))))
  (let ((a!2 (not (or (not G) a!1 (not (= B 1))))))
    (=> a!2 (Proc13 E D G A H B))))))
(assert (forall ((A Int) (B Int) (C Int) (G Bool))
  (=> (not (or (not G) (= C 0))) (Proc14 B A G C))))
(assert (forall ((A Int)
         (B Int)
         (C Int)
         (D Int)
         (E Int)
         (F Int)
         (G Bool)
         (H Int)
         (I Int)
         (J Int)
         (K Int)
         (L Int)
         (M Int)
         (N Int)
         (O Int)
         (P Int)
         (Q Int)
         (R Int))
  (let ((a!1 (not (and (= P (- 1073741670)) (= R P))))
        (a!2 (not (and (= O (- 1073741811)) (= R O)))))
  (let ((a!3 (and (or (not (= R 0)) (not (= Q R)))
                  (or a!1 (not (= Q R)))
                  (or a!2 (not (= Q R))))))
    (=> (not (or (not G) a!3)) (Proc10 N M G L K J I H F E D C B A Q))))))
(assert (forall ((A Int) (B Int) (C Int) (D Int) (E Int) (G Bool))
  (let ((a!1 (not (or (not G) (= E 0) (not (= D 259))))))
    (=> a!1 (Proc15 C B G A E D)))))
(assert (forall ((A Int) (B Int) (C Int) (D Int) (E Int) (F Int) (G Bool) (H Int))
  (let ((a!1 (and (or (not (= H 1)) (not (= F H)))
                  (or (not (= H 0)) (not (= F H))))))
    (=> (not (or (not G) a!1)) (Proc12 E D G C B A F)))))
(assert (forall ((A Int) (B Int) (C Int) (D Int) (G Bool))
  (let ((a!1 (not (or (not G) (not (Proc16 D C G B)) (not (= A 0))))))
    (=> a!1 (Proc2 D C G B A)))))
(assert (forall ((A Int) (B Int) (C Int) (D Int) (E Int) (F Int) (G Bool) (H Int))
  (let ((a!1 (and (not (<= E (+ 4 H))) (not (<= E F)))))
  (let ((a!2 (or (not G)
                 (not (= H F))
                 (not a!1)
                 (not (Proc17 E D G C H))
                 (not (and (= B 0) (= A E))))))
    (=> (not a!2) (Proc6 F D G C B A))))))
(assert (forall ((A Int) (B Int) (C Int) (D Int) (E Int) (F Int) (G Bool))
  (let ((a!1 (and (not (<= D (+ 4 F))) (not (<= D E)))))
  (let ((a!2 (or (not G)
                 (not (= F E))
                 (not a!1)
                 (not (Proc14 D C G F))
                 (not (and (= B 0) (= A D))))))
    (=> (not a!2) (Proc4 E C G B A))))))
(assert (forall ((A Int) (B Int) (C Int) (D Int) (E Int) (F Int) (G Bool))
  (let ((a!1 (not (or (not G) (not (Proc18 F E G D C B)) (not (= A B))))))
    (=> a!1 (Proc8 F E G D C A)))))
(assert (forall ((A Int)
         (B Int)
         (C Int)
         (D Int)
         (E Int)
         (F Int)
         (G Bool)
         (H Int)
         (I Int)
         (J Int))
  (let ((a!1 (and (not (<= H (+ 1 J))) (not (<= H I)))))
  (let ((a!2 (or (not G)
                 (not (= J I))
                 (not a!1)
                 (not (Proc19 H F G J E))
                 (not (and (= D H) (= C E))))))
    (=> (not a!2) (Proc20 I F G B A D C))))))
(assert (forall ((A Int) (B Int) (C Int) (D Int) (G Bool))
  (let ((a!1 (not (or (not G) (not (= D 1))))))
    (=> a!1 (Proc19 C B G A D)))))
(assert (forall ((A Int)
         (B Int)
         (C Int)
         (D Int)
         (E Int)
         (F Int)
         (G Bool)
         (H Int)
         (I Int)
         (J Int)
         (K Int))
  (let ((a!1 (or (not (= E 1))
                 (not (and (= D E) (= C F)))
                 (not (and (= B C) (= A D)))))
        (a!2 (or (= E 1)
                 (not (and (= D E) (= C F)))
                 (not (and (= B C) (= A D)))))
        (a!3 (or (not (= K 0))
                 (not (and (= D I) (= C J)))
                 (not (and (= B C) (= A D))))))
  (let ((a!4 (and (or (= K 0) (not (Proc20 J I G H K F E)) (and a!1 a!2)) a!3)))
    (=> (not (or (not G) a!4)) (Proc21 J I G H K B A))))))
(assert (forall ((A Int) (B Int) (G Bool)) (=> G (Proc22 B A G))))
(assert (forall ((A Int) (B Int) (G Bool)) (=> G (Proc23 B A G))))
(assert (forall ((A Int) (B Int) (G Bool)) (=> G (Proc24 B A G))))
(assert (forall ((A Int) (B Int) (C Int) (G Bool))
  (let ((a!1 (not (or (not G) (not (= C 0))))))
    (=> a!1 (Proc25 B A G C)))))
(assert (forall ((A Int)
         (B Int)
         (C Int)
         (D Int)
         (E Int)
         (F Int)
         (G Bool)
         (H Int)
         (I Int)
         (J Int)
         (K Int)
         (L Int)
         (M Int)
         (S Bool)
         (T Bool)
         (U Bool))
  (let ((a!1 (not (and (not (<= M 0)) (Proc26 M L U K))))
        (a!2 (not (and (= D F) (= C H) (= S T) (= B I)))))
  (let ((a!3 (or (= H 0) (not (and (= F E) (not T))) a!2))
        (a!4 (or (not (and (= H 0) (= G U))) (not (and (= F A) (= T G))) a!2)))
  (let ((a!5 (and (or (= H 1) (and a!3 a!4)) (or (not (= H 1)) (and a!3 a!4)))))
  (let ((a!6 (not (or (not U)
                      a!1
                      (not (Proc25 K L U J))
                      (not (Proc24 K J U))
                      (not (Proc23 K J U))
                      (not (Proc22 K J U))
                      (not (Proc27 K J U I H))
                      a!5))))
    (=> a!6 (Proc28 M L U D C S B))))))))
(assert (forall ((A Int) (B Int) (C Int) (G Bool))
  (let ((a!1 (not (or (not G) (not (= C 1))))))
    (=> a!1 (Proc29 B A G C)))))
(assert (forall ((A Int) (B Int) (C Int) (G Bool))
  (let ((a!1 (not (or (not G) (not (= C 0))))))
    (=> a!1 (Proc30 B A G C)))))
(assert (forall ((A Int) (B Int) (C Int) (G Bool))
  (let ((a!1 (not (or (not G) (not (= C 1))))))
    (=> a!1 (Proc31 B A G C)))))
(assert (forall ((A Int) (B Int) (C Int) (G Bool))
  (let ((a!1 (not (or (not G) (not (= C 1))))))
    (=> a!1 (Proc32 B A G C)))))
(assert (forall ((A Int) (B Int) (C Int) (G Bool))
  (let ((a!1 (not (or (not G) (not (= C 1))))))
    (=> a!1 (Proc33 B A G C)))))
(assert (forall ((A Int) (B Int) (C Int) (G Bool))
  (let ((a!1 (not (or (not G) (not (= C 0))))))
    (=> a!1 (Proc34 B A G C)))))
(assert (forall ((A Int) (B Int) (C Int) (G Bool))
  (let ((a!1 (not (or (not G) (not (= C 0))))))
    (=> a!1 (Proc35 B A G C)))))
(assert (forall ((A Int) (B Int) (C Int) (G Bool))
  (let ((a!1 (not (or (not G) (not (= C 1))))))
    (=> a!1 (Proc36 B A G C)))))
(assert (forall ((A Int) (B Int) (C Int) (G Bool))
  (let ((a!1 (not (or (not G) (not (= C 1))))))
    (=> a!1 (Proc37 B A G C)))))
(assert (forall ((A Int) (B Int) (C Int) (G Bool))
  (let ((a!1 (not (or (not G) (not (= C 0))))))
    (=> a!1 (Proc38 B A G C)))))
(assert (forall ((A Int) (B Int) (C Int) (G Bool))
  (let ((a!1 (not (or (not G) (not (= C 0))))))
    (=> a!1 (Proc39 B A G C)))))
(assert (forall ((A Int) (B Int) (C Int) (D Int) (G Bool))
  (let ((a!1 (or (not G) (not (= D (- 1073741823))) (not (= C D)))))
    (=> (not a!1) (Proc40 B A G C)))))
(assert (forall ((A Int) (B Int) (C Int) (G Bool)) (=> G (Proc16 C B G A))))
(assert (forall ((A Int) (B Int) (C Int) (D Int) (E Int) (F Int) (G Bool))
  (let ((a!1 (not (or (not G) (not (Proc15 F E G D C B)) (not (= A B))))))
    (=> a!1 (Proc18 F E G D C A)))))
(assert (forall ((A Int)
         (B Int)
         (C Int)
         (D Int)
         (E Int)
         (F Int)
         (G Bool)
         (H Int)
         (I Int)
         (J Int))
  (let ((a!1 (and (not (<= H (+ 1 J))) (not (<= H I))))
        (a!2 (not (and (= C 0) (= B E) (= A D)))))
  (let ((a!3 (and (or (not (= D 1)) a!2) (or (= D 1) a!2))))
  (let ((a!4 (not (or (not G)
                      (not (= J I))
                      (not a!1)
                      (not (Proc21 H F G J 0 E D))
                      a!3))))
    (=> a!4 (Proc41 I F G C B A)))))))
(assert (forall ((A Int) (B Int) (C Int) (D Int) (G Bool))
  (=> (not (or (not G) (= D 0))) (Proc17 C B G A D))))
(assert (forall ((A Int)
         (B Int)
         (C Int)
         (D Int)
         (E Int)
         (F Int)
         (G Bool)
         (H Int)
         (I Int)
         (J Int)
         (K Int)
         (L Int)
         (M Int)
         (N Int)
         (O Int)
         (P Int)
         (Q Int)
         (R Int)
         (V Int)
         (W Int)
         (X Int)
         (Y Int)
         (Z Int)
         (A1 Int)
         (B1 Int)
         (C1 Int)
         (D1 Int)
         (E1 Int)
         (F1 Int)
         (G1 Int)
         (H1 Int))
  (let ((a!1 (or (= E1 0)
                 (not (Proc3 G1 F1 G D1 H1 C1))
                 (not (and (= B1 C1) (= A1 G1)))
                 (not (Proc44 A1 F1 G B1 H1))
                 (= H1 0)
                 (not (and (= Z B1) (= Y A1)))))
        (a!2 (or (= E1 0)
                 (not (Proc40 G1 F1 G X))
                 (not (and (= B1 X) (= A1 G1)))
                 (not (Proc44 A1 F1 G B1 H1))
                 (= H1 0)
                 (not (and (= Z B1) (= Y A1)))))
        (a!3 (or (= E1 0)
                 (not (Proc7 G1 F1 G D1 H1 W V))
                 (not (and (= B1 W) (= A1 V)))
                 (not (Proc44 A1 F1 G B1 H1))
                 (= H1 0)
                 (not (and (= Z B1) (= Y A1)))))
        (a!4 (or (= E1 0)
                 (not (Proc11 G1 F1 G D1 H1 R))
                 (not (and (= B1 R) (= A1 G1)))
                 (not (Proc44 A1 F1 G B1 H1))
                 (= H1 0)
                 (not (and (= Z B1) (= Y A1)))))
        (a!5 (or (= E1 0)
                 (not (Proc40 G1 F1 G Q))
                 (not (and (= B1 Q) (= A1 G1)))
                 (not (Proc44 A1 F1 G B1 H1))
                 (= H1 0)
                 (not (and (= Z B1) (= Y A1)))))
        (a!6 (or (= E1 0)
                 (not (Proc40 G1 F1 G P))
                 (not (and (= B1 P) (= A1 G1)))
                 (not (Proc44 A1 F1 G B1 H1))
                 (= H1 0)
                 (not (and (= Z B1) (= Y A1)))))
        (a!7 (or (= E1 0)
                 (not (Proc40 G1 F1 G O))
                 (not (and (= B1 O) (= A1 G1)))
                 (not (Proc44 A1 F1 G B1 H1))
                 (= H1 0)
                 (not (and (= Z B1) (= Y A1)))))
        (a!8 (or (not (Proc40 G1 F1 G N))
                 (not (and (= B1 N) (= A1 G1)))
                 (not (Proc44 A1 F1 G B1 H1))
                 (= H1 0)
                 (not (and (= Z B1) (= Y A1)))))
        (a!9 (or (= E1 0)
                 (not (Proc40 G1 F1 G M))
                 (not (and (= B1 M) (= A1 G1)))
                 (not (Proc44 A1 F1 G B1 H1))
                 (= H1 0)
                 (not (and (= Z B1) (= Y A1)))))
        (a!10 (or (= E1 0)
                  (not (Proc40 G1 F1 G L))
                  (not (and (= B1 L) (= A1 G1)))
                  (not (Proc44 A1 F1 G B1 H1))
                  (= H1 0)
                  (not (and (= Z B1) (= Y A1)))))
        (a!11 (or (= E1 0)
                  (not (Proc40 G1 F1 G K))
                  (not (and (= B1 K) (= A1 G1)))
                  (not (Proc44 A1 F1 G B1 H1))
                  (= H1 0)
                  (not (and (= Z B1) (= Y A1)))))
        (a!12 (or (not (Proc40 G1 F1 G J))
                  (not (and (= B1 J) (= A1 G1)))
                  (not (Proc44 A1 F1 G B1 H1))
                  (= H1 0)
                  (not (and (= Z B1) (= Y A1)))))
        (a!13 (or (= E1 0)
                  (not (Proc40 G1 F1 G I))
                  (not (and (= B1 I) (= A1 G1)))
                  (not (Proc44 A1 F1 G B1 H1))
                  (= H1 0)
                  (not (and (= Z B1) (= Y A1)))))
        (a!14 (or (= E1 0)
                  (not (Proc45 G1 F1 G H1))
                  (not (Proc5 G1 F1 G D1 H1 H F))
                  (not (and (= B1 H) (= A1 F)))
                  (not (Proc44 A1 F1 G B1 H1))
                  (= H1 0)
                  (not (and (= Z B1) (= Y A1)))))
        (a!15 (or (= E1 0)
                  (not (Proc9 G1 F1 G D1 H1 E))
                  (not (and (= B1 E) (= A1 G1)))
                  (not (Proc44 A1 F1 G B1 H1))
                  (= H1 0)
                  (not (and (= Z B1) (= Y A1)))))
        (a!16 (or (not (Proc40 G1 F1 G D))
                  (not (and (= B1 D) (= A1 G1)))
                  (not (Proc44 A1 F1 G B1 H1))
                  (= H1 0)
                  (not (and (= Z B1) (= Y A1)))))
        (a!17 (or (= E1 0)
                  (not (Proc40 G1 F1 G C))
                  (not (and (= B1 C) (= A1 G1)))
                  (not (Proc44 A1 F1 G B1 H1))
                  (= H1 0)
                  (not (and (= Z B1) (= Y A1)))))
        (a!18 (or (not (= B 1))
                  (= B 0)
                  (= E1 0)
                  (not (Proc40 G1 F1 G C))
                  (not (and (= B1 C) (= A1 G1)))
                  (not (Proc44 A1 F1 G B1 H1))
                  (= H1 0)
                  (not (and (= Z B1) (= Y A1))))))
  (let ((a!19 (and (or (= E1 0) (and a!17 a!18))
                   (or (not (= A 1)) (= A 0) (= E1 0) (and a!17 a!18)))))
  (let ((a!20 (or (not G)
                  (= H1 0)
                  (not (Proc42 G1 F1 G H1))
                  (= E1 0)
                  (not (Proc43 G1 F1 G))
                  (and a!1
                       a!2
                       a!3
                       a!4
                       a!5
                       a!6
                       a!7
                       a!8
                       a!9
                       a!10
                       a!11
                       a!12
                       a!13
                       a!14
                       a!15
                       a!16
                       (or (= E1 0) a!19)))))
    (=> (not a!20) (Proc46 G1 F1 G D1 H1 Z Y)))))))
(assert (forall ((A Int) (B Int) (C Int) (D Int) (E Int) (G Bool))
  (let ((a!1 (not (or (not G)
                      (not (Proc47 E D G))
                      (not (Proc40 E D G C))
                      (not (Proc48 E D G))))))
    (=> a!1 (Proc49 E D G B A)))))
(assert (forall ((A Int) (B Int) (C Int) (D Int) (G Bool))
  (=> (not (or (not G) (= D 0) (= C 0))) (Proc45 B A G D))))
(assert (forall ((A Int) (B Int) (C Int) (G Bool))
  (=> (not (or (not G) (= C 0))) (Proc42 B A G C))))
(assert (forall ((A Int) (B Int) (G Bool)) (=> G (Proc0 B A G))))
(assert (forall ((A Int)
         (B Int)
         (C Int)
         (D Int)
         (E Int)
         (F Int)
         (G Bool)
         (H Int)
         (I Int)
         (J Int)
         (K Int)
         (L Int)
         (M Int)
         (N Int)
         (O Int)
         (P Int)
         (Q Int)
         (R Int)
         (V Int)
         (W Int)
         (X Int)
         (Y Int)
         (Z Int)
         (A1 Int)
         (B1 Int)
         (C1 Int)
         (D1 Int)
         (E1 Int)
         (F1 Int)
         (G1 Int)
         (H1 Int)
         (I1 Int)
         (J1 Int))
  (let ((a!1 (or (not (and (= Z 1) (= Y A1))) (not (and (= X Y) (= W Z)))))
        (a!2 (or (= H1 0)
                 (not (Proc50 A1 Z G))
                 (not (Proc46 A1 Z G N M L K))
                 (not (= Y K))
                 (not (and (= X Y) (= W Z)))))
        (a!3 (or (not (and (= H1 0) (= Y A1))) (not (and (= X Y) (= W Z)))))
        (a!4 (or (= G1 0)
                 (not (Proc50 A1 Z G))
                 (not (and (Proc49 A1 Z G J I) (= Y A1)))
                 (not (and (= X Y) (= W Z)))))
        (a!5 (or (not (and (= G1 0) (= Y A1))) (not (and (= X Y) (= W Z)))))
        (a!6 (or (not (Proc1 A1 Z G H F E D))
                 (not (= Y A1))
                 (not (and (= X Y) (= W Z)))))
        (a!7 (or (not (= Y A1)) (not (and (= X Y) (= W Z)))))
        (a!8 (or (not (Proc13 A1 Z G C B A))
                 (not (= Y A1))
                 (not (and (= X Y) (= W Z))))))
  (let ((a!9 (and a!1
                  (or (= Z 1)
                      (not (Proc39 A1 Z G V))
                      (not (Proc29 A1 Z G R))
                      (not (Proc35 A1 Z G Q))
                      (not (Proc36 A1 Z G P))
                      (not (Proc33 A1 Z G O))
                      (and a!2 a!3 a!4 a!5 a!6 a!7 a!8)))))
  (let ((a!10 (not (or (not G)
                       (not (Proc31 J1 I1 G H1))
                       (not (Proc38 J1 I1 G G1))
                       (not (Proc32 J1 I1 G F1))
                       (not (Proc37 J1 I1 G E1))
                       (not (Proc30 J1 I1 G D1))
                       (not (Proc34 J1 I1 G C1))
                       (not (Proc41 J1 I1 G B1 A1 Z))
                       a!9))))
    (=> a!10 (Proc27 J1 I1 G X W)))))))
(assert (forall ((A Int) (B Int) (G Bool)) (=> G (Proc43 B A G))))
(assert (forall ((A Int) (B Int) (C Int) (D Int) (G Bool)) (=> G (Proc44 D C G B A))))
(assert (forall ((A Int) (B Int) (G Bool)) (=> G (Proc50 B A G))))
(assert (forall ((A Int) (B Int) (G Bool)) (=> G (Proc47 B A G))))
(assert (forall ((A Int) (B Int) (G Bool)) (=> G (Proc48 B A G))))
(assert (forall ((A Int)
         (B Int)
         (C Int)
         (D Int)
         (E Int)
         (F Int)
         (G Bool)
         (H Int)
         (I Int)
         (J Int)
         (K Int)
         (L Int)
         (M Int)
         (N Int)
         (O Int)
         (P Int)
         (Q Int)
         (R Int)
         (V Int)
         (W Int)
         (X Int)
         (Y Int)
         (Z Int)
         (A1 Int)
         (B1 Int)
         (C1 Int)
         (D1 Int)
         (E1 Int)
         (F1 Int)
         (G1 Int)
         (H1 Int)
         (I1 Int)
         (J1 Int)
         (K1 Int)
         (L1 Int)
         (M1 Int)
         (N1 Int)
         (O1 Int)
         (P1 Int)
         (Q1 Int)
         (R1 Int)
         (S1 Int)
         (T1 Int)
         (U1 Int)
         (V1 Int)
         (W1 Int)
         (X1 Int)
         (Y1 Int)
         (Z1 Int)
         (A2 Int))
  (let ((a!1 (and (not (<= Y1 (+ 4 A2)))
                  (not (<= Y1 Z1))
                  (= X1 Y1)
                  (not (<= W1 (+ 332 X1)))))
        (a!2 (and (not (<= W1 Y1))
                  (= V1 W1)
                  (not (<= U1 (+ 4 V1)))
                  (not (<= U1 W1))
                  (= T1 U1)
                  (not (<= S1 (+ 536 T1)))
                  (not (<= S1 U1))
                  (= R1 S1)
                  (not (<= Q1 (+ 240 R1)))
                  (not (<= Q1 S1))
                  (= P1 Q1)
                  (not (<= O1 (+ 240 P1)))
                  (not (<= O1 Q1))
                  (= N1 O1)
                  (not (<= M1 (+ 240 N1)))
                  (not (<= M1 O1))
                  (= L1 M1)
                  (not (<= K1 (+ 4 L1)))
                  (not (<= K1 M1))
                  (= J1 K1)
                  (not (<= I1 (+ 536 J1)))
                  (not (<= I1 K1))
                  (= H1 I1)
                  (not (<= G1 (+ 332 H1)))
                  (not (<= G1 I1))
                  (= F1 G1)
                  (not (<= E1 (+ 240 F1)))
                  (not (<= E1 G1))
                  (= D1 E1)
                  (not (<= C1 (+ 240 D1)))
                  (not (<= C1 E1))
                  (= B1 C1)
                  (not (<= A1 (+ 332 B1)))
                  (not (<= A1 C1))
                  (= Z A1)
                  (not (<= Y (+ 4 Z)))
                  (not (<= Y A1))
                  (= X Y)
                  (not (<= W (+ 240 X)))
                  (not (<= W Y))
                  (= V W)
                  (not (<= R (+ 240 V)))
                  (not (<= R W))
                  (= Q R)
                  (not (<= P (+ 240 Q)))
                  (not (<= P R))
                  (= O P)
                  (not (<= N (+ 240 O)))
                  (not (<= N P))
                  (= M N)
                  (not (<= L (+ 240 M)))
                  (not (<= L N))
                  (= K L)
                  (not (<= J (+ 40 K)))
                  (not (<= J L))
                  (= I J)
                  (not (<= H (+ 332 I)))
                  (not (<= H J))
                  (= F H)
                  (not (<= E (+ 4 F)))
                  (not (<= E H))
                  (= D E)
                  (not (<= C (+ 40 D)))
                  (not (<= C E)))))
  (let ((a!3 (not (or (not G) (not (= A2 Z1)) (not a!1) (not a!2) (not (= B C))))))
    (=> a!3 (Proc26 Z1 A G B))))))
(assert (forall ((A Int)
         (B Int)
         (C Int)
         (D Int)
         (E Int)
         (F Int)
         (G Bool)
         (H Int)
         (I Int)
         (S Bool)
         (T Bool))
  (let ((a!1 (or (not T) (not (and (Proc28 I H true F E S D) (not S))))))
    (=> (not a!1) (Proc51 I H T C G B A)))))
(assert (let ((a!1 (exists ((V0 Int)
                    (V1 Int)
                    (V2 Bool)
                    (V3 Int)
                    (V4 Bool)
                    (V5 Int)
                    (V6 Int))
             (not (=> (and (Proc51 V0 V1 V2 V3 V4 V5 V6) (not false)) false)))))
  (not a!1)))

(check-sat)
